; (SynGuard_Directory_0_D_BUSY_WB_DataMsgD2CType ActiveID CacheID NumSharers Owner Sharers[CacheIDType::C0] Sharers[CacheIDType::C1])
(set-logic LIA)

(define-sort CacheIDType (Enum (C0 C1 undef)))
(define-sort ValueType (Enum (V0 V1 undef)))

(synth-fun SynGuard_Directory_0_D_BUSY_WB_DataMsgD2CType ((ActiveID CacheIDType) (CacheID CacheIDType) (NumSharers Int) (Owner CacheIDType) (Sharers0 Bool) (Sharers1 Bool)) Bool
    ((Start Bool (true false
                  Sharers0 Sharers1
                  (not Start)
                  (and Start Start)
                  (or Start Start)
                  (xor Start Start)
                  (= Start Start)
                  (= CacheIDStart CacheIDStart)))
     (CacheIDStart CacheIDType (CacheIDType::C0 CacheIDType::C1 ActiveID CacheID Owner))))

(constraint (= (SynGuard_Directory_0_D_BUSY_WB_DataMsgD2CType CacheIDType::C0 CacheIDType::C0 0 CacheIDType::undef false false) false))
(constraint (= (SynGuard_Directory_0_D_BUSY_WB_DataMsgD2CType CacheIDType::C0 CacheIDType::C0 1 CacheIDType::C1 false false) true))
(constraint (= (SynGuard_Directory_0_D_BUSY_WB_DataMsgD2CType CacheIDType::undef CacheIDType::C0 2 CacheIDType::undef true true) false))
(constraint (= (SynGuard_Directory_0_D_BUSY_WB_DataMsgD2CType CacheIDType::undef CacheIDType::C0 1 CacheIDType::undef true false) false))
(constraint (= (SynGuard_Directory_0_D_BUSY_WB_DataMsgD2CType CacheIDType::C1 CacheIDType::C0 2 CacheIDType::C1 false true) false))
(constraint (= (SynGuard_Directory_0_D_BUSY_WB_DataMsgD2CType CacheIDType::undef CacheIDType::C0 1 CacheIDType::C1 false true) false))
(constraint (= (SynGuard_Directory_0_D_BUSY_WB_DataMsgD2CType CacheIDType::C0 CacheIDType::C0 2 CacheIDType::C1 true true) false))
(constraint (= (SynGuard_Directory_0_D_BUSY_WB_DataMsgD2CType CacheIDType::undef CacheIDType::C0 1 CacheIDType::C0 true false) false))
(constraint (= (SynGuard_Directory_0_D_BUSY_WB_DataMsgD2CType CacheIDType::C0 CacheIDType::C0 1 CacheIDType::undef false true) false))
(constraint (= (SynGuard_Directory_0_D_BUSY_WB_DataMsgD2CType CacheIDType::C1 CacheIDType::C0 1 CacheIDType::undef true false) false))
(constraint (= (SynGuard_Directory_0_D_BUSY_WB_DataMsgD2CType CacheIDType::C1 CacheIDType::C0 1 CacheIDType::C0 true false) false))
(constraint (= (SynGuard_Directory_0_D_BUSY_WB_DataMsgD2CType CacheIDType::C1 CacheIDType::C0 1 CacheIDType::C1 false false) false))
(constraint (= (SynGuard_Directory_0_D_BUSY_WB_DataMsgD2CType CacheIDType::C1 CacheIDType::C0 0 CacheIDType::undef false false) false))
(constraint (= (SynGuard_Directory_0_D_BUSY_WB_DataMsgD2CType CacheIDType::C0 CacheIDType::C0 1 CacheIDType::C0 false false) false))
(constraint (= (SynGuard_Directory_0_D_BUSY_WB_DataMsgD2CType CacheIDType::C0 CacheIDType::C0 0 CacheIDType::C0 false false) false))
(constraint (= (SynGuard_Directory_0_D_BUSY_WB_DataMsgD2CType CacheIDType::C1 CacheIDType::C0 1 CacheIDType::C0 false false) false))
(constraint (= (SynGuard_Directory_0_D_BUSY_WB_DataMsgD2CType CacheIDType::C1 CacheIDType::C0 2 CacheIDType::undef false true) false))
(constraint (= (SynGuard_Directory_0_D_BUSY_WB_DataMsgD2CType CacheIDType::C0 CacheIDType::C0 2 CacheIDType::undef true true) false))
(constraint (= (SynGuard_Directory_0_D_BUSY_WB_DataMsgD2CType CacheIDType::C0 CacheIDType::C0 0 CacheIDType::C1 false false) false))
(constraint (= (SynGuard_Directory_0_D_BUSY_WB_DataMsgD2CType CacheIDType::C1 CacheIDType::C0 1 CacheIDType::undef false false) false))
(constraint (= (SynGuard_Directory_0_D_BUSY_WB_DataMsgD2CType CacheIDType::C1 CacheIDType::C0 0 CacheIDType::C1 false false) false))
(constraint (= (SynGuard_Directory_0_D_BUSY_WB_DataMsgD2CType CacheIDType::C0 CacheIDType::C0 2 CacheIDType::C0 true true) false))
(constraint (= (SynGuard_Directory_0_D_BUSY_WB_DataMsgD2CType CacheIDType::C1 CacheIDType::C0 2 CacheIDType::C0 false true) false))
(constraint (= (SynGuard_Directory_0_D_BUSY_WB_DataMsgD2CType CacheIDType::C0 CacheIDType::C0 2 CacheIDType::C1 true false) false))
(constraint (= (SynGuard_Directory_0_D_BUSY_WB_DataMsgD2CType CacheIDType::C0 CacheIDType::C1 2 CacheIDType::C0 true false) false))
(constraint (= (SynGuard_Directory_0_D_BUSY_WB_DataMsgD2CType CacheIDType::C1 CacheIDType::C1 2 CacheIDType::C1 false true) false))
(constraint (= (SynGuard_Directory_0_D_BUSY_WB_DataMsgD2CType CacheIDType::C1 CacheIDType::C1 2 CacheIDType::C1 true true) false))
(constraint (= (SynGuard_Directory_0_D_BUSY_WB_DataMsgD2CType CacheIDType::C0 CacheIDType::C0 2 CacheIDType::undef true false) false))
(constraint (= (SynGuard_Directory_0_D_BUSY_WB_DataMsgD2CType CacheIDType::C0 CacheIDType::C1 0 CacheIDType::C1 false false) false))
(constraint (= (SynGuard_Directory_0_D_BUSY_WB_DataMsgD2CType CacheIDType::C0 CacheIDType::C1 2 CacheIDType::undef true false) false))
(constraint (= (SynGuard_Directory_0_D_BUSY_WB_DataMsgD2CType CacheIDType::C1 CacheIDType::C1 0 CacheIDType::C1 false false) false))
(constraint (= (SynGuard_Directory_0_D_BUSY_WB_DataMsgD2CType CacheIDType::undef CacheIDType::C0 0 CacheIDType::undef false false) false))
(constraint (= (SynGuard_Directory_0_D_BUSY_WB_DataMsgD2CType CacheIDType::C0 CacheIDType::C1 1 CacheIDType::C1 false false) false))
(constraint (= (SynGuard_Directory_0_D_BUSY_WB_DataMsgD2CType CacheIDType::undef CacheIDType::C0 1 CacheIDType::undef false true) false))
(constraint (= (SynGuard_Directory_0_D_BUSY_WB_DataMsgD2CType CacheIDType::C1 CacheIDType::C1 2 CacheIDType::undef false true) false))
(constraint (= (SynGuard_Directory_0_D_BUSY_WB_DataMsgD2CType CacheIDType::C0 CacheIDType::C1 1 CacheIDType::C0 false false) false))
(constraint (= (SynGuard_Directory_0_D_BUSY_WB_DataMsgD2CType CacheIDType::C0 CacheIDType::C1 2 CacheIDType::C1 true false) false))
(constraint (= (SynGuard_Directory_0_D_BUSY_WB_DataMsgD2CType CacheIDType::C0 CacheIDType::C1 2 CacheIDType::C0 true true) false))
(constraint (= (SynGuard_Directory_0_D_BUSY_WB_DataMsgD2CType CacheIDType::C0 CacheIDType::C1 2 CacheIDType::undef true true) false))
(constraint (= (SynGuard_Directory_0_D_BUSY_WB_DataMsgD2CType CacheIDType::undef CacheIDType::C1 1 CacheIDType::C1 false true) false))
(constraint (= (SynGuard_Directory_0_D_BUSY_WB_DataMsgD2CType CacheIDType::C1 CacheIDType::C1 0 CacheIDType::C0 false false) false))
(constraint (= (SynGuard_Directory_0_D_BUSY_WB_DataMsgD2CType CacheIDType::C0 CacheIDType::C0 1 CacheIDType::undef false false) false))
(constraint (= (SynGuard_Directory_0_D_BUSY_WB_DataMsgD2CType CacheIDType::C1 CacheIDType::C1 1 CacheIDType::C0 true false) false))
(constraint (= (SynGuard_Directory_0_D_BUSY_WB_DataMsgD2CType CacheIDType::undef CacheIDType::C1 2 CacheIDType::undef true true) false))
(constraint (= (SynGuard_Directory_0_D_BUSY_WB_DataMsgD2CType CacheIDType::C1 CacheIDType::C1 2 CacheIDType::C0 true true) false))
(constraint (= (SynGuard_Directory_0_D_BUSY_WB_DataMsgD2CType CacheIDType::undef CacheIDType::C1 1 CacheIDType::undef true false) false))
(constraint (= (SynGuard_Directory_0_D_BUSY_WB_DataMsgD2CType CacheIDType::C1 CacheIDType::C0 2 CacheIDType::C0 true true) false))
(constraint (= (SynGuard_Directory_0_D_BUSY_WB_DataMsgD2CType CacheIDType::C0 CacheIDType::C0 2 CacheIDType::C0 true false) false))
(constraint (= (SynGuard_Directory_0_D_BUSY_WB_DataMsgD2CType CacheIDType::C1 CacheIDType::C1 0 CacheIDType::undef false false) false))
(constraint (= (SynGuard_Directory_0_D_BUSY_WB_DataMsgD2CType CacheIDType::C0 CacheIDType::C0 1 CacheIDType::undef true false) false))
(constraint (= (SynGuard_Directory_0_D_BUSY_WB_DataMsgD2CType CacheIDType::C1 CacheIDType::C1 2 CacheIDType::undef true true) false))
(constraint (= (SynGuard_Directory_0_D_BUSY_WB_DataMsgD2CType CacheIDType::C0 CacheIDType::C1 2 CacheIDType::C1 true true) false))
(constraint (= (SynGuard_Directory_0_D_BUSY_WB_DataMsgD2CType CacheIDType::C1 CacheIDType::C1 1 CacheIDType::C0 false false) true))
(constraint (= (SynGuard_Directory_0_D_BUSY_WB_DataMsgD2CType CacheIDType::C1 CacheIDType::C0 2 CacheIDType::undef true true) false))
(constraint (= (SynGuard_Directory_0_D_BUSY_WB_DataMsgD2CType CacheIDType::C0 CacheIDType::C1 1 CacheIDType::undef true false) false))
(constraint (= (SynGuard_Directory_0_D_BUSY_WB_DataMsgD2CType CacheIDType::C1 CacheIDType::C1 1 CacheIDType::undef true false) false))
(constraint (= (SynGuard_Directory_0_D_BUSY_WB_DataMsgD2CType CacheIDType::C1 CacheIDType::C1 1 CacheIDType::C1 false false) false))
(constraint (= (SynGuard_Directory_0_D_BUSY_WB_DataMsgD2CType CacheIDType::C1 CacheIDType::C0 2 CacheIDType::C1 true true) false))
(constraint (= (SynGuard_Directory_0_D_BUSY_WB_DataMsgD2CType CacheIDType::C1 CacheIDType::C1 1 CacheIDType::undef false false) false))
(constraint (= (SynGuard_Directory_0_D_BUSY_WB_DataMsgD2CType CacheIDType::C0 CacheIDType::C0 1 CacheIDType::C1 false true) false))
(constraint (= (SynGuard_Directory_0_D_BUSY_WB_DataMsgD2CType CacheIDType::C1 CacheIDType::C0 1 CacheIDType::undef false true) false))
(constraint (= (SynGuard_Directory_0_D_BUSY_WB_DataMsgD2CType CacheIDType::C0 CacheIDType::C1 0 CacheIDType::C0 false false) false))
(constraint (= (SynGuard_Directory_0_D_BUSY_WB_DataMsgD2CType CacheIDType::C0 CacheIDType::C1 1 CacheIDType::undef false true) false))
(constraint (= (SynGuard_Directory_0_D_BUSY_WB_DataMsgD2CType CacheIDType::C0 CacheIDType::C1 1 CacheIDType::undef false false) false))
(constraint (= (SynGuard_Directory_0_D_BUSY_WB_DataMsgD2CType CacheIDType::C1 CacheIDType::C1 1 CacheIDType::undef false true) false))
(constraint (= (SynGuard_Directory_0_D_BUSY_WB_DataMsgD2CType CacheIDType::C0 CacheIDType::C1 1 CacheIDType::C1 false true) false))
(constraint (= (SynGuard_Directory_0_D_BUSY_WB_DataMsgD2CType CacheIDType::undef CacheIDType::C1 1 CacheIDType::C0 true false) false))
(constraint (= (SynGuard_Directory_0_D_BUSY_WB_DataMsgD2CType CacheIDType::C1 CacheIDType::C0 0 CacheIDType::C0 false false) false))
(constraint (= (SynGuard_Directory_0_D_BUSY_WB_DataMsgD2CType CacheIDType::undef CacheIDType::C1 1 CacheIDType::undef false true) false))
(constraint (= (SynGuard_Directory_0_D_BUSY_WB_DataMsgD2CType CacheIDType::C1 CacheIDType::C1 2 CacheIDType::C0 false true) false))
(constraint (= (SynGuard_Directory_0_D_BUSY_WB_DataMsgD2CType CacheIDType::C0 CacheIDType::C1 0 CacheIDType::undef false false) false))
(constraint (= (SynGuard_Directory_0_D_BUSY_WB_DataMsgD2CType CacheIDType::undef CacheIDType::C1 0 CacheIDType::undef false false) false))

(check-synth)
